DIMACS_lns/graph-1000-967.col
p edge 1000 1853
e 1 292
e 1 301
e 1 235
e 1 481
e 1 230
e 1 920
e 2 858
e 2 332
e 2 959
e 2 857
e 3 106
e 3 254
e 3 82
e 4 970
e 4 915
e 4 454
e 4 542
e 5 421
e 5 614
e 5 666
e 5 308
e 5 627
e 5 934
e 6 243
e 6 898
e 6 470
e 6 895
e 6 697
e 7 114
e 7 235
e 7 593
e 7 184
e 7 583
e 7 220
e 8 301
e 8 337
e 8 819
e 8 614
e 9 308
e 9 882
e 9 295
e 10 235
e 10 521
e 10 433
e 10 629
e 10 779
e 10 424
e 11 364
e 11 55
e 11 68
e 11 211
e 11 848
e 12 545
e 12 704
e 12 36
e 13 659
e 13 865
e 13 923
e 14 803
e 14 160
e 14 799
e 14 937
e 14 582
e 15 222
e 15 242
e 15 303
e 15 175
e 16 414
e 16 776
e 16 757
e 16 39
e 16 254
e 18 861
e 18 575
e 18 801
e 18 301
e 18 384
e 18 190
e 18 632
e 18 421
e 18 371
e 19 883
e 19 464
e 19 280
e 20 299
e 20 622
e 20 385
e 20 895
e 20 447
e 21 898
e 21 374
e 21 513
e 21 337
e 21 604
e 21 247
e 21 681
e 21 548
e 21 863
e 22 995
e 22 578
e 22 934
e 22 381
e 23 265
e 23 448
e 23 476
e 23 951
e 23 440
e 23 135
e 24 547
e 24 108
e 24 60
e 24 881
e 25 408
e 25 229
e 25 831
e 25 373
e 26 888
e 26 50
e 26 914
e 27 863
e 27 200
e 27 756
e 28 568
e 28 922
e 28 177
e 29 819
e 29 82
e 29 211
e 29 780
e 32 477
e 32 479
e 32 148
e 32 242
e 32 168
e 35 163
e 35 771
e 35 414
e 35 102
e 35 859
e 35 705
e 35 457
e 36 954
e 36 466
e 36 722
e 36 447
e 37 686
e 37 439
e 37 213
e 38 901
e 38 386
e 38 804
e 38 663
e 38 676
e 39 781
e 39 158
e 39 672
e 39 862
e 40 439
e 40 971
e 40 591
e 40 189
e 40 172
e 41 85
e 41 797
e 41 644
e 41 347
e 41 193
e 42 896
e 42 121
e 42 272
e 42 253
e 42 389
e 42 361
e 42 667
e 43 668
e 43 748
e 43 836
e 44 521
e 44 858
e 44 816
e 44 67
e 44 913
e 44 687
e 45 986
e 45 147
e 45 775
e 45 746
e 45 613
e 45 423
e 46 803
e 46 347
e 46 70
e 46 848
e 46 183
e 46 332
e 47 510
e 47 326
e 47 792
e 47 812
e 47 286
e 48 406
e 48 446
e 48 584
e 48 666
e 49 790
e 49 669
e 49 367
e 49 986
e 50 934
e 50 136
e 50 460
e 51 418
e 51 515
e 51 544
e 51 857
e 51 304
e 51 205
e 52 866
e 52 74
e 52 448
e 52 650
e 54 410
e 54 120
e 54 811
e 54 594
e 54 342
e 54 962
e 55 362
e 55 437
e 55 436
e 55 846
e 55 888
e 55 1000
e 55 491
e 56 256
e 56 430
e 56 541
e 56 703
e 56 887
e 56 663
e 56 756
e 57 211
e 57 769
e 57 338
e 57 316
e 57 394
e 57 501
e 57 960
e 57 700
e 58 888
e 58 115
e 58 907
e 58 969
e 58 610
e 60 274
e 60 599
e 61 892
e 61 446
e 61 245
e 61 66
e 61 878
e 61 226
e 65 203
e 65 542
e 65 993
e 65 705
e 65 878
e 65 574
e 65 840
e 65 238
e 66 901
e 66 806
e 66 619
e 66 702
e 66 472
e 67 784
e 67 960
e 67 625
e 68 540
e 68 631
e 68 653
e 69 193
e 69 398
e 69 356
e 69 652
e 69 329
e 69 950
e 70 81
e 70 848
e 70 91
e 71 268
e 71 385
e 71 304
e 72 146
e 72 329
e 72 486
e 72 539
e 73 511
e 73 707
e 73 339
e 74 423
e 74 355
e 74 972
e 74 890
e 75 823
e 75 470
e 75 349
e 75 387
e 75 527
e 77 464
e 77 145
e 77 243
e 77 721
e 78 229
e 78 629
e 78 740
e 78 89
e 80 854
e 80 916
e 80 634
e 80 166
e 81 127
e 81 143
e 82 320
e 82 876
e 85 555
e 85 495
e 85 224
e 85 600
e 85 479
e 85 295
e 86 592
e 86 738
e 86 830
e 87 417
e 87 416
e 87 779
e 89 870
e 89 387
e 89 189
e 89 762
e 91 786
e 91 557
e 91 816
e 91 226
e 91 213
e 91 489
e 91 377
e 91 601
e 91 93
e 92 578
e 92 261
e 92 999
e 92 210
e 92 503
e 92 715
e 93 988
e 93 544
e 93 201
e 93 905
e 93 111
e 94 583
e 94 830
e 94 643
e 94 967
e 94 663
e 95 394
e 95 330
e 95 320
e 96 191
e 96 431
e 96 695
e 98 646
e 98 714
e 98 511
e 98 507
e 98 424
e 98 625
e 98 291
e 99 957
e 99 474
e 99 762
e 100 308
e 100 273
e 100 800
e 101 330
e 101 273
e 101 710
e 101 269
e 102 652
e 102 455
e 102 602
e 102 964
e 103 601
e 103 618
e 103 837
e 103 645
e 104 685
e 104 763
e 104 379
e 104 841
e 104 937
e 105 604
e 105 260
e 105 992
e 105 714
e 106 165
e 106 361
e 106 135
e 107 374
e 107 392
e 107 157
e 108 117
e 108 362
e 108 555
e 108 862
e 108 527
e 108 717
e 108 169
e 111 265
e 111 895
e 111 317
e 111 426
e 111 141
e 111 557
e 113 191
e 113 666
e 113 495
e 113 492
e 113 831
e 114 345
e 114 801
e 115 841
e 115 745
e 116 190
e 116 906
e 116 727
e 116 563
e 116 551
e 117 614
e 117 992
e 117 328
e 117 197
e 117 721
e 117 634
e 120 310
e 120 459
e 120 386
e 121 641
e 121 370
e 121 329
e 121 434
e 121 592
e 121 382
e 123 376
e 123 747
e 123 484
e 124 544
e 124 964
e 124 926
e 125 264
e 125 404
e 125 338
e 125 382
e 125 937
e 125 226
e 126 585
e 126 999
e 126 909
e 126 676
e 127 640
e 127 956
e 127 290
e 128 956
e 128 747
e 128 345
e 130 678
e 130 206
e 130 703
e 130 629
e 130 317
e 130 790
e 131 644
e 131 981
e 131 594
e 131 900
e 131 243
e 131 217
e 131 136
e 133 355
e 133 342
e 133 509
e 133 668
e 133 567
e 134 929
e 134 712
e 134 629
e 135 405
e 135 984
e 136 653
e 137 862
e 137 436
e 137 362
e 137 792
e 137 630
e 137 819
e 139 580
e 139 778
e 139 150
e 139 339
e 139 627
e 139 375
e 141 286
e 141 808
e 141 475
e 143 361
e 143 277
e 143 857
e 144 915
e 144 198
e 144 959
e 144 551
e 144 905
e 145 744
e 145 281
e 145 348
e 145 221
e 145 846
e 146 256
e 146 501
e 146 618
e 146 685
e 147 193
e 147 410
e 147 693
e 147 450
e 147 351
e 148 385
e 148 448
e 149 549
e 149 984
e 149 305
e 149 468
e 149 821
e 149 274
e 150 719
e 150 929
e 150 483
e 150 643
e 150 470
e 152 294
e 152 678
e 152 674
e 153 707
e 153 907
e 153 705
e 153 852
e 153 669
e 153 808
e 153 980
e 153 606
e 154 221
e 154 981
e 154 582
e 154 291
e 154 903
e 154 896
e 155 352
e 155 515
e 155 182
e 156 639
e 156 624
e 156 183
e 157 678
e 157 919
e 157 683
e 157 369
e 157 687
e 158 200
e 158 712
e 158 462
e 158 233
e 158 773
e 160 768
e 160 389
e 162 184
e 162 640
e 162 436
e 162 320
e 163 652
e 163 362
e 164 513
e 164 663
e 164 281
e 165 470
e 165 855
e 165 869
e 165 387
e 165 460
e 166 453
e 166 436
e 168 328
e 168 743
e 168 173
e 168 261
e 169 324
e 169 886
e 169 358
e 169 397
e 169 451
e 171 816
e 171 790
e 171 614
e 171 440
e 171 809
e 172 284
e 172 351
e 172 626
e 173 593
e 173 215
e 173 693
e 174 484
e 174 384
e 174 962
e 175 269
e 175 413
e 176 848
e 176 562
e 176 675
e 176 481
e 176 391
e 176 594
e 176 629
e 177 852
e 177 356
e 177 201
e 177 890
e 177 599
e 177 568
e 178 871
e 178 283
e 178 408
e 178 967
e 178 206
e 178 905
e 180 686
e 180 329
e 180 793
e 180 525
e 180 354
e 180 601
e 180 678
e 182 451
e 182 630
e 183 716
e 183 830
e 184 910
e 185 838
e 185 625
e 185 947
e 185 715
e 186 915
e 186 819
e 186 211
e 189 804
e 190 579
e 190 467
e 191 632
e 191 417
e 191 613
e 191 782
e 193 454
e 193 483
e 194 490
e 194 695
e 194 252
e 195 254
e 195 420
e 195 953
e 196 484
e 196 579
e 196 499
e 196 823
e 196 680
e 196 874
e 197 501
e 197 562
e 197 204
e 197 447
e 197 495
e 198 824
e 198 950
e 199 553
e 199 836
e 199 281
e 200 576
e 200 593
e 200 262
e 201 270
e 201 436
e 201 373
e 202 983
e 202 713
e 202 650
e 202 631
e 203 732
e 203 502
e 204 493
e 204 298
e 204 477
e 205 672
e 205 900
e 205 848
e 205 480
e 205 749
e 206 631
e 206 280
e 206 398
e 206 481
e 208 736
e 208 550
e 208 994
e 208 522
e 210 787
e 210 318
e 210 489
e 210 474
e 211 948
e 211 245
e 211 835
e 211 230
e 213 988
e 215 959
e 215 901
e 215 546
e 215 746
e 217 653
e 217 620
e 217 886
e 219 826
e 219 478
e 219 281
e 219 527
e 220 883
e 220 771
e 220 326
e 220 926
e 221 319
e 221 552
e 221 394
e 222 846
e 222 991
e 223 800
e 223 815
e 223 521
e 223 773
e 223 303
e 223 851
e 224 415
e 224 486
e 224 475
e 224 397
e 226 289
e 226 503
e 227 806
e 227 745
e 227 557
e 227 963
e 227 254
e 229 571
e 230 971
e 230 967
e 230 914
e 230 610
e 230 721
e 230 298
e 231 678
e 231 546
e 231 593
e 233 236
e 233 677
e 233 719
e 233 772
e 235 694
e 236 669
e 236 956
e 237 490
e 237 582
e 237 837
e 238 420
e 238 491
e 238 756
e 238 564
e 238 840
e 239 536
e 239 845
e 239 907
e 240 283
e 240 544
e 240 562
e 242 796
e 242 981
e 243 666
e 243 367
e 243 676
e 244 715
e 244 835
e 244 839
e 244 280
e 245 280
e 245 869
e 245 727
e 245 330
e 246 267
e 246 934
e 246 356
e 246 877
e 246 420
e 246 948
e 247 303
e 247 413
e 247 638
e 247 416
e 247 892
e 248 833
e 248 998
e 248 593
e 249 684
e 249 372
e 249 667
e 250 722
e 250 988
e 250 695
e 250 452
e 251 845
e 251 606
e 251 934
e 251 337
e 252 989
e 252 913
e 252 708
e 252 346
e 253 686
e 253 778
e 253 666
e 253 649
e 254 904
e 254 835
e 254 903
e 254 791
e 254 787
e 255 720
e 255 795
e 255 796
e 255 495
e 256 563
e 256 440
e 257 786
e 257 416
e 257 886
e 257 669
e 260 416
e 260 291
e 260 656
e 260 622
e 261 625
e 261 751
e 261 710
e 261 784
e 261 763
e 262 800
e 262 804
e 262 268
e 262 672
e 262 576
e 262 296
e 264 460
e 264 349
e 264 511
e 264 364
e 265 831
e 265 913
e 265 914
e 267 491
e 267 916
e 268 376
e 268 716
e 268 919
e 268 468
e 268 439
e 268 844
e 268 827
e 268 526
e 269 838
e 269 852
e 269 640
e 269 907
e 270 352
e 270 332
e 270 292
e 271 545
e 271 813
e 271 650
e 272 275
e 272 430
e 272 564
e 272 887
e 272 749
e 272 939
e 273 408
e 273 509
e 273 645
e 273 641
e 273 304
e 273 747
e 273 347
e 274 375
e 275 362
e 275 698
e 275 283
e 275 663
e 277 794
e 277 745
e 280 991
e 280 898
e 280 886
e 280 713
e 281 310
e 281 336
e 282 946
e 282 567
e 282 308
e 282 529
e 283 702
e 283 826
e 283 932
e 283 450
e 284 735
e 284 341
e 284 815
e 285 697
e 285 317
e 285 634
e 286 373
e 286 633
e 286 762
e 288 677
e 288 295
e 288 787
e 289 661
e 289 969
e 289 434
e 289 455
e 289 942
e 289 377
e 289 443
e 290 546
e 290 797
e 290 421
e 290 395
e 291 704
e 291 525
e 291 849
e 292 976
e 292 391
e 292 901
e 292 345
e 292 823
e 292 600
e 294 391
e 294 823
e 295 907
e 295 710
e 296 797
e 296 639
e 298 983
e 298 666
e 299 437
e 299 959
e 300 652
e 300 384
e 300 693
e 301 514
e 301 720
e 301 810
e 301 460
e 301 874
e 302 338
e 302 681
e 302 971
e 302 866
e 303 860
e 303 698
e 303 607
e 303 590
e 304 416
e 304 717
e 304 826
e 304 550
e 305 411
e 305 311
e 305 404
e 305 413
e 306 998
e 306 510
e 306 626
e 306 779
e 306 356
e 308 680
e 308 431
e 308 356
e 309 509
e 309 340
e 309 989
e 310 371
e 310 778
e 310 840
e 310 415
e 310 974
e 311 942
e 311 589
e 311 507
e 311 956
e 311 379
e 311 580
e 312 904
e 312 956
e 312 597
e 316 640
e 316 592
e 316 748
e 316 599
e 317 948
e 317 366
e 317 647
e 318 578
e 318 772
e 318 930
e 319 435
e 319 326
e 320 748
e 320 513
e 322 374
e 322 747
e 322 391
e 324 483
e 324 436
e 325 502
e 325 480
e 325 939
e 325 892
e 326 787
e 326 487
e 327 472
e 327 948
e 327 802
e 328 436
e 330 362
e 330 528
e 330 656
e 330 563
e 332 603
e 332 813
e 332 539
e 336 947
e 336 821
e 336 909
e 337 840
e 338 790
e 338 736
e 339 698
e 339 763
e 339 647
e 339 829
e 340 342
e 340 738
e 340 964
e 340 469
e 340 351
e 340 644
e 341 942
e 341 573
e 342 422
e 342 480
e 345 491
e 346 472
e 346 629
e 347 613
e 347 603
e 347 910
e 348 575
e 348 663
e 348 979
e 349 704
e 349 440
e 349 727
e 349 634
e 351 672
e 351 831
e 351 680
e 352 954
e 352 748
e 353 475
e 353 633
e 353 469
e 354 940
e 354 424
e 354 558
e 355 549
e 357 758
e 357 423
e 357 797
e 358 909
e 358 857
e 358 442
e 358 915
e 359 801
e 359 963
e 359 493
e 361 757
e 361 410
e 361 998
e 362 435
e 362 547
e 362 743
e 362 368
e 363 672
e 363 645
e 363 391
e 364 461
e 366 938
e 366 957
e 367 515
e 367 375
e 368 472
e 368 853
e 369 973
e 369 831
e 369 395
e 370 580
e 370 387
e 371 929
e 371 507
e 371 959
e 372 892
e 372 829
e 373 804
e 373 793
e 373 850
e 373 550
e 374 406
e 374 392
e 374 625
e 374 419
e 375 450
e 376 528
e 376 668
e 377 469
e 377 844
e 377 657
e 377 545
e 377 920
e 379 881
e 381 743
e 381 799
e 382 650
e 382 389
e 383 917
e 383 948
e 383 756
e 383 800
e 383 810
e 384 602
e 385 877
e 386 768
e 386 948
e 386 483
e 387 925
e 387 665
e 387 992
e 387 436
e 389 472
e 391 881
e 391 972
e 392 924
e 394 424
e 394 516
e 394 851
e 395 713
e 396 451
e 396 962
e 396 499
e 397 607
e 397 572
e 398 925
e 398 758
e 401 576
e 401 573
e 401 799
e 404 821
e 404 455
e 404 644
e 404 582
e 405 744
e 405 617
e 405 946
e 406 850
e 406 906
e 408 986
e 410 860
e 411 727
e 411 889
e 413 821
e 413 591
e 413 965
e 413 549
e 414 866
e 414 681
e 415 758
e 415 499
e 416 759
e 416 796
e 417 808
e 417 716
e 417 738
e 417 856
e 417 433
e 417 481
e 418 902
e 418 980
e 418 922
e 419 676
e 419 753
e 419 830
e 420 541
e 420 854
e 420 962
e 421 993
e 421 810
e 422 571
e 422 652
e 422 777
e 423 829
e 423 649
e 423 466
e 423 861
e 423 808
e 423 435
e 424 793
e 424 740
e 424 758
e 424 765
e 424 474
e 424 480
e 424 826
e 426 635
e 426 525
e 428 457
e 428 662
e 428 455
e 428 708
e 428 910
e 430 495
e 430 743
e 431 700
e 431 525
e 431 962
e 433 892
e 434 550
e 434 661
e 435 600
e 436 602
e 436 716
e 436 793
e 437 938
e 438 491
e 438 519
e 438 704
e 438 819
e 439 687
e 440 756
e 442 633
e 442 974
e 443 647
e 443 624
e 443 837
e 446 517
e 446 983
e 446 917
e 446 951
e 447 493
e 448 804
e 448 778
e 448 802
e 449 708
e 449 764
e 449 601
e 450 699
e 450 601
e 450 947
e 450 802
e 450 876
e 450 639
e 450 998
e 451 678
e 451 775
e 451 510
e 451 983
e 452 656
e 452 557
e 452 617
e 452 567
e 453 888
e 453 782
e 453 720
e 454 493
e 455 865
e 455 830
e 455 499
e 456 657
e 456 898
e 456 630
e 457 965
e 457 829
e 457 869
e 457 912
e 459 626
e 459 932
e 460 622
e 460 796
e 461 746
e 461 509
e 462 756
e 462 505
e 462 743
e 464 916
e 464 647
e 466 792
e 466 764
e 466 812
e 466 704
e 467 824
e 467 831
e 468 882
e 468 674
e 469 589
e 471 735
e 471 541
e 471 555
e 471 652
e 471 573
e 472 820
e 472 702
e 474 680
e 474 684
e 474 507
e 475 934
e 475 645
e 475 481
e 475 483
e 476 814
e 476 713
e 476 487
e 477 536
e 477 527
e 477 640
e 478 746
e 478 915
e 478 490
e 478 849
e 479 917
e 480 930
e 480 482
e 481 759
e 481 614
e 482 634
e 482 931
e 482 697
e 482 803
e 482 707
e 482 906
e 483 732
e 486 784
e 486 575
e 486 716
e 486 838
e 486 622
e 487 808
e 487 511
e 487 672
e 489 600
e 489 516
e 489 778
e 489 638
e 489 766
e 490 678
e 490 940
e 491 971
e 491 738
e 492 871
e 492 762
e 492 774
e 492 764
e 493 791
e 493 966
e 495 667
e 495 829
e 495 546
e 498 794
e 498 882
e 498 521
e 498 563
e 501 957
e 501 519
e 502 909
e 502 776
e 503 957
e 505 514
e 505 539
e 507 956
e 507 966
e 509 665
e 510 795
e 510 976
e 510 600
e 513 920
e 513 906
e 514 903
e 515 562
e 515 694
e 516 903
e 517 684
e 517 617
e 519 596
e 521 757
e 522 924
e 522 858
e 522 591
e 523 606
e 523 930
e 523 653
e 523 882
e 525 795
e 525 823
e 525 598
e 526 796
e 526 669
e 526 853
e 526 758
e 526 638
e 526 970
e 527 868
e 527 568
e 527 905
e 528 585
e 529 917
e 529 600
e 536 841
e 539 959
e 539 695
e 539 993
e 540 657
e 540 649
e 540 946
e 541 894
e 541 921
e 542 804
e 542 777
e 544 979
e 544 904
e 544 774
e 544 819
e 545 1000
e 545 845
e 546 821
e 546 635
e 546 745
e 547 719
e 547 613
e 547 619
e 547 838
e 547 598
e 548 571
e 548 995
e 549 641
e 550 723
e 550 557
e 551 765
e 552 980
e 552 557
e 552 983
e 553 631
e 553 924
e 557 846
e 557 641
e 557 929
e 557 860
e 557 869
e 558 953
e 558 685
e 558 678
e 562 799
e 562 624
e 562 921
e 562 999
e 564 721
e 567 629
e 568 741
e 568 827
e 568 635
e 568 860
e 568 940
e 571 971
e 571 720
e 572 703
e 572 986
e 573 913
e 574 962
e 574 694
e 575 721
e 575 852
e 576 889
e 576 644
e 576 589
e 578 967
e 578 930
e 579 610
e 579 776
e 579 772
e 580 683
e 580 866
e 580 970
e 583 927
e 583 676
e 583 744
e 584 852
e 584 629
e 585 723
e 585 865
e 585 740
e 589 811
e 589 759
e 590 712
e 590 894
e 591 717
e 592 679
e 592 773
e 592 874
e 593 679
e 594 814
e 594 893
e 594 895
e 596 958
e 596 760
e 597 995
e 597 837
e 598 867
e 598 604
e 599 902
e 599 801
e 601 889
e 602 824
e 603 927
e 603 797
e 606 953
e 607 640
e 607 839
e 610 902
e 610 736
e 611 839
e 611 753
e 611 826
e 613 826
e 613 837
e 613 983
e 614 756
e 617 708
e 617 675
e 618 960
e 619 690
e 620 946
e 620 697
e 622 876
e 624 690
e 624 639
e 624 694
e 624 737
e 625 721
e 625 912
e 625 905
e 625 797
e 626 983
e 627 835
e 627 668
e 627 638
e 627 658
e 629 813
e 630 994
e 630 690
e 631 657
e 631 749
e 631 820
e 632 765
e 635 827
e 638 995
e 639 927
e 639 723
e 641 914
e 641 811
e 641 675
e 641 845
e 643 877
e 643 829
e 644 953
e 644 694
e 645 698
e 645 647
e 645 856
e 646 896
e 646 931
e 646 747
e 649 697
e 649 790
e 650 740
e 652 726
e 652 800
e 656 837
e 656 986
e 656 850
e 658 706
e 658 852
e 658 896
e 659 855
e 659 980
e 659 905
e 661 665
e 662 902
e 662 939
e 665 877
e 668 893
e 668 801
e 668 931
e 668 821
e 669 766
e 669 675
e 672 892
e 672 861
e 672 723
e 672 738
e 674 868
e 674 957
e 674 786
e 675 806
e 676 762
e 677 749
e 677 951
e 678 738
e 678 769
e 679 773
e 679 927
e 680 947
e 683 889
e 683 768
e 684 998
e 685 712
e 686 737
e 687 769
e 690 820
e 693 865
e 693 846
e 694 937
e 694 700
e 695 764
e 699 853
e 699 763
e 700 912
e 702 932
e 702 829
e 705 966
e 706 719
e 706 917
e 706 926
e 706 708
e 707 848
e 707 760
e 708 773
e 710 800
e 710 910
e 712 848
e 713 959
e 713 877
e 714 959
e 714 967
e 714 757
e 714 946
e 715 878
e 716 726
e 717 863
e 719 963
e 720 778
e 720 773
e 722 976
e 726 948
e 726 888
e 726 895
e 727 857
e 727 830
e 732 858
e 732 801
e 732 955
e 732 736
e 735 806
e 735 815
e 737 769
e 737 883
e 741 970
e 741 979
e 741 854
e 741 870
e 741 925
e 744 920
e 746 953
e 751 824
e 751 869
e 753 924
e 757 845
e 757 934
e 759 903
e 760 890
e 764 766
e 766 958
e 766 940
e 766 927
e 766 994
e 767 812
e 767 844
e 767 866
e 767 850
e 769 797
e 771 811
e 772 833
e 772 844
e 773 988
e 773 972
e 774 970
e 775 861
e 777 889
e 779 870
e 780 965
e 780 838
e 781 812
e 781 924
e 781 851
e 782 902
e 782 951
e 784 881
e 786 922
e 790 927
e 790 827
e 790 821
e 791 989
e 791 923
e 791 932
e 794 846
e 795 871
e 796 959
e 796 900
e 797 951
e 797 916
e 797 983
e 799 981
e 799 859
e 800 963
e 802 986
e 804 867
e 806 867
e 809 958
e 809 984
e 811 901
e 811 900
e 814 841
e 820 902
e 823 844
e 826 947
e 826 850
e 827 929
e 830 896
e 833 850
e 836 991
e 838 971
e 840 929
e 840 866
e 840 980
e 844 999
e 844 972
e 849 914
e 849 903
e 849 988
e 849 960
e 850 859
e 850 858
e 851 856
e 852 863
e 852 890
e 852 955
e 853 921
e 854 926
e 854 989
e 855 993
e 855 912
e 856 948
e 862 881
e 863 917
e 867 988
e 868 901
e 869 939
e 870 970
e 871 894
e 876 942
e 876 966
e 876 905
e 877 903
e 878 919
e 883 924
e 887 893
e 889 927
e 892 937
e 894 955
e 894 920
e 900 1000
e 905 946
e 906 950
e 909 969
e 913 999
e 913 991
e 921 1000
e 923 954
e 927 937
e 938 958
e 938 989
e 938 963
e 939 972
e 939 986
e 948 989
e 953 973
e 959 974
e 972 991
e 972 980
e 973 1000
e 974 994
e 974 995
e 984 1000
e 988 992
